1253260
19,43,78,66,3,14,22,23,89,108,9,65,76,8,36,25,40,37,71,56,74,85,26,68,69,13,38,30,48,10,90,88,96,46,70,104,98,75,49,17,6,87,64,11,35,27,7,39,67,54,77,32,107,105,59,41,72,18,61,86,95,92,12,20,99,101,53,57,103,63,21,52,16,79,47,73,91,55,102,29,5,60,84,42,94,31,50,83,58,1,80,45,93,106,15,28,51,33,100,97,34,4,0,81,44,24,82,2,62
